p wcnf 184 368 369 
1 -60 -116 0 
1 141 -2 0 
1 -145 38 0 
1 -98 -105 0 
1 143 -109 0 
1 -113 -176 0 
1 -144 125 0 
1 60 -151 0 
1 -175 171 0 
1 61 -34 0 
1 132 -97 0 
1 -17 -48 0 
1 -100 181 0 
1 173 -183 0 
1 177 171 0 
1 -144 168 0 
1 22 74 0 
1 -90 -127 0 
1 164 5 0 
1 91 131 0 
1 140 173 0 
1 -151 -76 0 
1 3 171 0 
1 -175 3 0 
1 18 69 0 
1 144 -48 0 
1 -106 -37 0 
1 -111 22 0 
1 180 -99 0 
1 -51 -108 0 
1 132 -105 0 
1 -136 -93 0 
1 -165 27 0 
1 62 128 0 
1 106 117 0 
1 -25 113 0 
1 159 86 0 
1 130 161 0 
1 -125 80 0 
1 -95 -156 0 
1 -40 -171 0 
1 26 87 0 
1 104 77 0 
1 -50 106 0 
1 145 -30 0 
1 -9 166 0 
1 -115 -145 0 
1 37 -60 0 
1 -71 87 0 
1 -51 -176 0 
1 -41 31 0 
1 -50 155 0 
1 118 -53 0 
1 159 164 0 
1 69 151 0 
1 -10 33 0 
1 32 -94 0 
1 -106 32 0 
1 -16 69 0 
1 -120 75 0 
1 -2 -71 0 
1 -170 -41 0 
1 -161 -98 0 
1 -33 -127 0 
1 -11 -123 0 
1 171 91 0 
1 -184 169 0 
1 -138 59 0 
1 175 15 0 
1 115 -172 0 
1 -12 38 0 
1 79 38 0 
1 -123 26 0 
1 15 91 0 
1 179 174 0 
1 -39 -175 0 
1 -171 84 0 
1 -30 -35 0 
1 7 108 0 
1 173 -60 0 
1 -43 17 0 
1 83 -169 0 
1 24 -67 0 
1 -79 27 0 
1 75 42 0 
1 -68 -42 0 
1 -37 -100 0 
1 -84 139 0 
1 23 -174 0 
1 49 87 0 
1 -134 26 0 
1 -139 -93 0 
1 -88 -184 0 
1 -178 55 0 
1 43 17 0 
1 -146 -178 0 
1 -135 49 0 
1 73 -170 0 
1 96 130 0 
1 136 76 0 
1 -28 -98 0 
1 -133 -98 0 
1 -53 -65 0 
1 10 -88 0 
1 -144 121 0 
1 94 180 0 
1 -166 -171 0 
1 -113 41 0 
1 -145 88 0 
1 -127 183 0 
1 -40 36 0 
1 26 -16 0 
1 -73 80 0 
1 -134 159 0 
1 119 81 0 
1 57 -92 0 
1 48 -90 0 
1 71 109 0 
1 -124 -169 0 
1 106 -98 0 
1 102 -171 0 
1 6 112 0 
1 32 -94 0 
1 17 -57 0 
1 -74 33 0 
1 147 -152 0 
1 -103 30 0 
1 -45 -54 0 
1 60 -89 0 
1 134 -150 0 
1 67 -18 0 
1 -184 -11 0 
1 -150 -170 0 
1 143 -177 0 
1 141 24 0 
1 182 -166 0 
1 -107 180 0 
1 147 151 0 
1 72 137 0 
1 181 123 0 
1 -11 26 0 
1 107 75 0 
1 107 76 0 
1 57 100 0 
1 119 -76 0 
1 -59 -167 0 
1 51 12 0 
1 -145 -179 0 
1 81 33 0 
1 -54 46 0 
1 76 169 0 
1 101 -3 0 
1 184 112 0 
1 120 31 0 
1 -49 78 0 
1 5 14 0 
1 -137 -54 0 
1 -85 99 0 
1 114 -95 0 
1 -126 -66 0 
1 -111 -24 0 
1 152 6 0 
1 -93 176 0 
1 -31 181 0 
1 -91 159 0 
1 -72 100 0 
1 -107 21 0 
1 -3 -83 0 
1 126 -167 0 
1 69 -10 0 
1 99 169 0 
1 140 -8 0 
1 -16 47 0 
1 74 127 0 
1 48 -47 0 
1 40 -102 0 
1 -26 57 0 
1 -37 -78 0 
1 -81 159 0 
1 -5 146 0 
1 152 -52 0 
1 75 62 0 
1 -111 161 0 
1 -137 125 0 
1 65 -151 0 
1 -148 -91 0 
1 184 -37 0 
1 175 24 0 
1 -26 -105 0 
1 98 -48 0 
1 1 179 0 
1 109 -85 0 
1 -38 46 0 
1 119 102 0 
1 -67 -173 0 
1 -80 -51 0 
1 -95 -132 0 
1 145 -44 0 
1 -172 149 0 
1 73 36 0 
1 98 86 0 
1 9 -53 0 
1 -85 -107 0 
1 82 22 0 
1 163 76 0 
1 -77 -179 0 
1 161 -133 0 
1 57 -127 0 
1 -123 -44 0 
1 -165 -73 0 
1 82 29 0 
1 10 157 0 
1 93 -78 0 
1 -127 -168 0 
1 -42 100 0 
1 -81 88 0 
1 154 133 0 
1 158 -79 0 
1 -75 -120 0 
1 5 -144 0 
1 136 -143 0 
1 -181 -33 0 
1 -44 -46 0 
1 62 -99 0 
1 91 -14 0 
1 95 -158 0 
1 -94 48 0 
1 34 -119 0 
1 79 127 0 
1 97 158 0 
1 159 68 0 
1 -73 -176 0 
1 159 -136 0 
1 -70 26 0 
1 -123 51 0 
1 14 170 0 
1 -111 64 0 
1 66 118 0 
1 -66 -41 0 
1 -42 147 0 
1 -94 -70 0 
1 -79 -169 0 
1 -109 66 0 
1 -5 -17 0 
1 -14 94 0 
1 -136 124 0 
1 -54 -30 0 
1 13 45 0 
1 30 -163 0 
1 -141 167 0 
1 -128 92 0 
1 167 -86 0 
1 -74 88 0 
1 -93 110 0 
1 -1 -84 0 
1 81 -62 0 
1 -44 14 0 
1 166 -118 0 
1 -16 168 0 
1 -47 127 0 
1 2 -49 0 
1 62 129 0 
1 127 83 0 
1 106 65 0 
1 138 10 0 
1 74 -158 0 
1 -26 179 0 
1 -161 1 0 
1 -24 126 0 
1 -154 3 0 
1 50 93 0 
1 28 -147 0 
1 -57 102 0 
1 -90 101 0 
1 -113 104 0 
1 22 -170 0 
1 115 -81 0 
1 75 129 0 
1 -146 -169 0 
1 68 -107 0 
1 113 -147 0 
1 -1 -80 0 
1 48 104 0 
1 25 -139 0 
1 171 -78 0 
1 -123 -51 0 
1 -64 -147 0 
1 51 -140 0 
1 -159 -34 0 
1 163 137 0 
1 -148 117 0 
1 55 -80 0 
1 -117 32 0 
1 -22 -66 0 
1 113 -101 0 
1 133 30 0 
1 101 143 0 
1 68 -111 0 
1 -152 113 0 
1 44 177 0 
1 182 14 0 
1 -8 -90 0 
1 100 52 0 
1 104 146 0 
1 -121 -149 0 
1 61 173 0 
1 125 87 0 
1 -130 148 0 
1 -31 -87 0 
1 177 72 0 
1 -46 22 0 
1 -108 -41 0 
1 89 13 0 
1 -4 144 0 
1 -45 28 0 
1 174 91 0 
1 -162 3 0 
1 59 176 0 
1 -165 -101 0 
1 33 -175 0 
1 -2 -9 0 
1 175 54 0 
1 131 61 0 
1 -147 -58 0 
1 -96 64 0 
1 156 60 0 
1 164 -146 0 
1 -165 -111 0 
1 155 -67 0 
1 -129 -127 0 
1 -25 173 0 
1 -15 97 0 
1 106 -178 0 
1 -93 55 0 
1 -41 164 0 
1 -150 -12 0 
1 58 84 0 
1 -96 -127 0 
1 -20 46 0 
1 11 29 0 
1 -89 -175 0 
1 -64 -152 0 
1 59 -120 0 
1 131 39 0 
1 -153 70 0 
1 -155 -28 0 
1 -10 107 0 
1 -39 131 0 
1 -44 -163 0 
1 7 -57 0 
1 146 -119 0 
1 -16 -30 0 
1 -81 -72 0 
1 -15 -33 0 
1 -139 126 0 
1 37 135 0 
1 174 -181 0 
1 138 8 0 
1 29 106 0 
1 177 88 0 
1 -176 -145 0 
1 110 135 0 
1 -52 177 0 
1 93 -97 0 
1 158 154 0 
1 -160 -60 0 
1 -128 131 0 
1 88 96 0 
